c FILE: i160-232

c SOURCE: From steinlib

c DESCRIPTION: Steinlib instance with 160 nodes and 320 edges.

p edge 160 320
e 1 30
e 1 48
e 1 87
e 1 113
e 1 121
e 1 133
e 2 3
e 2 43
e 2 49
e 2 51
e 2 72
e 2 77
e 2 83
e 3 9
e 3 59
e 3 64
e 3 141
e 4 22
e 4 105
e 4 113
e 4 159
e 5 6
e 5 86
e 5 91
e 5 94
e 5 125
e 6 78
e 6 100
e 6 101
e 6 106
e 6 124
e 6 151
e 7 53
e 7 75
e 7 77
e 7 90
e 7 104
e 8 38
e 8 39
e 8 123
e 8 136
e 9 44
e 9 67
e 9 79
e 9 140
e 9 148
e 10 44
e 10 102
e 11 56
e 11 83
e 11 138
e 11 149
e 12 33
e 12 77
e 12 112
e 12 119
e 12 148
e 13 21
e 13 46
e 13 59
e 13 64
e 14 56
e 14 109
e 14 147
e 14 153
e 15 16
e 15 107
e 16 72
e 16 92
e 17 37
e 17 40
e 17 77
e 17 84
e 17 89
e 17 126
e 18 23
e 18 65
e 18 80
e 18 85
e 19 100
e 20 26
e 20 27
e 20 55
e 20 65
e 20 70
e 20 88
e 20 106
e 20 107
e 20 122
e 20 138
e 20 143
e 20 149
e 21 43
e 21 52
e 21 83
e 21 84
e 22 44
e 22 90
e 22 98
e 24 49
e 24 70
e 24 140
e 24 155
e 25 100
e 25 102
e 26 52
e 26 74
e 26 117
e 27 29
e 27 46
e 27 82
e 27 102
e 27 110
e 27 147
e 28 35
e 28 147
e 29 116
e 30 42
e 30 53
e 30 137
e 31 46
e 31 77
e 31 126
e 31 160
e 32 42
e 32 104
e 32 151
e 33 35
e 33 37
e 33 68
e 33 142
e 34 83
e 34 108
e 35 46
e 35 110
e 35 131
e 36 64
e 36 138
e 37 43
e 38 91
e 38 115
e 38 122
e 38 123
e 39 59
e 39 85
e 39 103
e 39 122
e 40 52
e 40 53
e 40 105
e 40 128
e 41 94
e 42 48
e 42 50
e 42 88
e 42 96
e 43 92
e 43 145
e 44 123
e 44 141
e 44 156
e 45 135
e 45 143
e 45 158
e 46 65
e 46 88
e 46 126
e 46 140
e 47 131
e 48 81
e 48 109
e 48 155
e 49 73
e 49 103
e 50 70
e 50 74
e 50 120
e 50 141
e 51 81
e 51 119
e 51 127
e 51 138
e 51 157
e 52 151
e 53 83
e 53 110
e 53 124
e 53 138
e 54 106
e 55 69
e 55 112
e 56 57
e 57 85
e 57 125
e 58 79
e 58 89
e 58 96
e 58 129
e 58 149
e 58 157
e 59 81
e 59 100
e 59 112
e 59 120
e 59 129
e 60 96
e 60 132
e 61 87
e 61 136
e 62 125
e 62 139
e 63 67
e 63 82
e 63 89
e 63 94
e 63 118
e 63 121
e 63 152
e 64 94
e 64 114
e 64 145
e 65 111
e 66 145
e 66 147
e 66 151
e 67 115
e 68 75
e 68 92
e 68 136
e 69 114
e 70 99
e 71 93
e 71 101
e 71 152
e 72 75
e 72 88
e 72 141
e 72 155
e 73 95
e 73 100
e 73 136
e 73 146
e 75 97
e 76 85
e 76 120
e 76 144
e 77 102
e 77 130
e 78 95
e 79 108
e 80 118
e 80 138
e 82 103
e 84 87
e 84 111
e 84 144
e 86 114
e 86 156
e 87 119
e 87 136
e 87 138
e 88 114
e 89 106
e 92 108
e 93 109
e 93 145
e 93 150
e 94 154
e 95 135
e 96 133
e 96 153
e 97 134
e 98 139
e 98 148
e 99 139
e 99 145
e 100 103
e 100 112
e 100 119
e 101 117
e 102 127
e 103 133
e 103 143
e 104 155
e 105 111
e 106 131
e 106 159
e 107 128
e 107 136
e 108 131
e 112 139
e 112 141
e 112 146
e 114 140
e 114 160
e 115 129
e 116 157
e 116 158
e 125 141
e 125 143
e 125 144
e 125 147
e 127 149
e 130 132
e 130 135
e 130 153
e 133 136
e 134 136
e 136 145
e 136 146
e 139 152
e 141 146
e 142 154
e 144 154
e 145 160
e 146 151
e 148 155
e 150 154
e 154 160
e 158 159
